(declare-fun Constructed_Argument_t () String)
(declare-fun CreateAsClass () Bool)
(declare-fun ExpandObjSwitcher () Real)
(declare-fun Constructed_Argument_2_t () String)
(declare-fun Constructed_Argument_3_t () String)
(declare-fun Constructed_Argument_4_t () String)
(declare-fun CreateAsClass_2 () Bool)
(declare-fun Constructed_Argument_2_elements__normalized_0_t () String)
(declare-fun Constructed_Argument_2_elements__normalized_0 () String)
(declare-fun Constructed_Argument_2_elements_name_1_t () String)
(declare-fun Constructed_Argument_2_elements_path_2_t () String)
(declare-fun Constructed_Argument_2_elements_path_2_Array_Length () Int)
(declare-fun Constructed_Argument_2_elements_query_3_t () String)
(declare-fun Constructed_Argument_2_elements_name_4_t () String)
(declare-fun Constructed_Argument_2_elements_path_5_t () String)
(declare-fun Constructed_Argument_2_elements_hash_6_t () String)
(declare-fun Constructed_Argument_2_elements_path_7_t () String)
(declare-fun Constructed_Argument_2_elements_query_8_t () String)
(assert (not (= Constructed_Argument_t "string")))
(assert (not (= Constructed_Argument_t "number")))
(assert (not (= Constructed_Argument_t "boolean")))
(assert (not (= Constructed_Argument_t "object")))
(assert (not (= Constructed_Argument_t "array_number")))
(assert (not (= Constructed_Argument_t "array_string")))
(assert (not (= Constructed_Argument_t "array_bool")))
(assert (not (= Constructed_Argument_t "null")))
(assert CreateAsClass)
(assert (= ExpandObjSwitcher 0.0))
(assert (= Constructed_Argument_2_t "object"))
(assert (not (= Constructed_Argument_3_t "string")))
(assert (not (= Constructed_Argument_3_t "number")))
(assert (not (= Constructed_Argument_3_t "boolean")))
(assert (not (= Constructed_Argument_3_t "object")))
(assert (not (= Constructed_Argument_3_t "array_number")))
(assert (not (= Constructed_Argument_3_t "array_string")))
(assert (not (= Constructed_Argument_3_t "array_bool")))
(assert (not (= Constructed_Argument_3_t "null")))
(assert (not (= Constructed_Argument_4_t "string")))
(assert (not (= Constructed_Argument_4_t "number")))
(assert (not (= Constructed_Argument_4_t "boolean")))
(assert (not (= Constructed_Argument_4_t "object")))
(assert (not (= Constructed_Argument_4_t "array_number")))
(assert (not (= Constructed_Argument_4_t "array_string")))
(assert (not (= Constructed_Argument_4_t "array_bool")))
(assert (not (= Constructed_Argument_4_t "null")))
(assert (not CreateAsClass_2))
(assert (= Constructed_Argument_2_elements__normalized_0_t "string"))
(assert (not (= Constructed_Argument_2_elements__normalized_0 "")))
(assert (not (= Constructed_Argument_2_elements_name_1_t "string")))
(assert (not (= Constructed_Argument_2_elements_name_1_t "number")))
(assert (not (= Constructed_Argument_2_elements_name_1_t "boolean")))
(assert (not (= Constructed_Argument_2_elements_name_1_t "object")))
(assert (not (= Constructed_Argument_2_elements_name_1_t "array_number")))
(assert (not (= Constructed_Argument_2_elements_name_1_t "array_string")))
(assert (not (= Constructed_Argument_2_elements_name_1_t "array_bool")))
(assert (not (= Constructed_Argument_2_elements_name_1_t "null")))
(assert (= Constructed_Argument_2_elements_path_2_t "array_number"))
(assert (>= Constructed_Argument_2_elements_path_2_Array_Length 0))
(assert (not (= Constructed_Argument_2_elements_query_3_t "string")))
(assert (not (= Constructed_Argument_2_elements_query_3_t "number")))
(assert (not (= Constructed_Argument_2_elements_query_3_t "boolean")))
(assert (not (= Constructed_Argument_2_elements_query_3_t "object")))
(assert (not (= Constructed_Argument_2_elements_query_3_t "array_number")))
(assert (not (= Constructed_Argument_2_elements_query_3_t "array_string")))
(assert (not (= Constructed_Argument_2_elements_query_3_t "array_bool")))
(assert (not (= Constructed_Argument_2_elements_query_3_t "null")))
(assert (not (= Constructed_Argument_2_elements_name_4_t "string")))
(assert (not (= Constructed_Argument_2_elements_name_4_t "number")))
(assert (not (= Constructed_Argument_2_elements_name_4_t "boolean")))
(assert (not (= Constructed_Argument_2_elements_name_4_t "object")))
(assert (not (= Constructed_Argument_2_elements_name_4_t "array_number")))
(assert (not (= Constructed_Argument_2_elements_name_4_t "array_string")))
(assert (not (= Constructed_Argument_2_elements_name_4_t "array_bool")))
(assert (not (= Constructed_Argument_2_elements_name_4_t "null")))
(assert (not (= Constructed_Argument_2_elements_path_5_t "string")))
(assert (not (= Constructed_Argument_2_elements_path_5_t "number")))
(assert (not (= Constructed_Argument_2_elements_path_5_t "boolean")))
(assert (not (= Constructed_Argument_2_elements_path_5_t "object")))
(assert (not (= Constructed_Argument_2_elements_path_5_t "array_number")))
(assert (not (= Constructed_Argument_2_elements_path_5_t "array_string")))
(assert (not (= Constructed_Argument_2_elements_path_5_t "array_bool")))
(assert (not (= Constructed_Argument_2_elements_path_5_t "null")))
(assert (not (= Constructed_Argument_2_elements_hash_6_t "string")))
(assert (not (= Constructed_Argument_2_elements_hash_6_t "number")))
(assert (not (= Constructed_Argument_2_elements_hash_6_t "boolean")))
(assert (not (= Constructed_Argument_2_elements_hash_6_t "object")))
(assert (not (= Constructed_Argument_2_elements_hash_6_t "array_number")))
(assert (not (= Constructed_Argument_2_elements_hash_6_t "array_string")))
(assert (not (= Constructed_Argument_2_elements_hash_6_t "array_bool")))
(assert (not (= Constructed_Argument_2_elements_hash_6_t "null")))
(assert (not (= Constructed_Argument_2_elements_path_7_t "string")))
(assert (not (= Constructed_Argument_2_elements_path_7_t "number")))
(assert (not (= Constructed_Argument_2_elements_path_7_t "boolean")))
(assert (not (= Constructed_Argument_2_elements_path_7_t "object")))
(assert (not (= Constructed_Argument_2_elements_path_7_t "array_number")))
(assert (not (= Constructed_Argument_2_elements_path_7_t "array_string")))
(assert (not (= Constructed_Argument_2_elements_path_7_t "array_bool")))
(assert (not (= Constructed_Argument_2_elements_path_7_t "null")))
(assert (not (= Constructed_Argument_2_elements_query_8_t "string")))
(assert (not (= Constructed_Argument_2_elements_query_8_t "number")))
(assert (not (= Constructed_Argument_2_elements_query_8_t "boolean")))
(assert (not (= Constructed_Argument_2_elements_query_8_t "object")))
(assert (not (= Constructed_Argument_2_elements_query_8_t "array_number")))
(assert (= Constructed_Argument_2_elements_query_8_t "array_string"))
(check-sat)
